% Logging successfully configured
%%%mzn-stat: initTime=0.096317042
%%%mzn-stat: objective=946
%%%mzn-stat: nodes=994
%%%mzn-stat: restarts=0
%%%mzn-stat: peakDepth=251
%%%mzn-stat: solveTime=0.008203645
%%%mzn-stat: variables=504
%%%mzn-stat: propagators=355
%%%mzn-stat: failures=90
%%%mzn-stat: propagations=6215
%%%mzn-stat: nogoods=90
%%%mzn-stat: numAtomicConstraintsPropagated=0
%%%mzn-stat: allDifferentNumber1TotalHallSetSize=180
%%%mzn-stat: allDifferentNumber1NumberOfConflicts=90
%%%mzn-stat: allDifferentNumber1MaxHallSetSize=2
%%%mzn-stat: allDifferentNumber1PropagationsTotal=1382
%%%mzn-stat: allDifferentNumber1PropagationsThatFoundConflict=90
%%%mzn-stat: circuitNumber2PropagationsThatFoundConflict=0
%%%mzn-stat: circuitNumber2TotalFixedEdgesAtConflict=0
%%%mzn-stat: circuitNumber2NumberOfConflicts=0
%%%mzn-stat: circuitNumber2PropagationsThatPruned=19
%%%mzn-stat: circuitNumber2PropagationsTotal=692
%%%mzn-stat: AverageConflictSize=2
%%%mzn-stat: NumUnitNogoodsLearned=0
%%%mzn-stat: AverageLearnedNogoodLength=2
%%%mzn-stat: AverageBacktrackAmount=0
%%%mzn-stat: AverageLbd=2
%%%mzn-stat: 2AutonomousSearchNumBackupCalled=232
%%%mzn-stat: 2AutonomousSearchNumPredicatesRemoved=0
%%%mzn-stat: 2AutonomousSearchNumCalls=233
%%%mzn-stat: 2AutonomousSearchNumPredicatesAdded=117
%%%mzn-stat: 2AutonomousSearchAverageSizeOfHeap=0.5021459227467812
%%%mzn-stat: 2AutonomousSearchNumAssignedPredicatesEncountered=117
%%%mzn-stat-end
maxleg = 946;
succ = array1d(1..20,[2, 3, 4, 5, 7, 8, 6, 9, 10, 13, 1, 11, 14, 15, 19, 17, 18, 20, 16, 12]);
% time elapsed: 5.19 s
----------
%%%mzn-stat: initTime=0.096317042
%%%mzn-stat: objective=627
%%%mzn-stat: nodes=1274
%%%mzn-stat: restarts=0
%%%mzn-stat: peakDepth=251
%%%mzn-stat: solveTime=0.009584322
%%%mzn-stat: variables=504
%%%mzn-stat: propagators=355
%%%mzn-stat: failures=98
%%%mzn-stat: propagations=7113
%%%mzn-stat: nogoods=98
%%%mzn-stat: numAtomicConstraintsPropagated=0
%%%mzn-stat: allDifferentNumber1TotalHallSetSize=196
%%%mzn-stat: allDifferentNumber1NumberOfConflicts=98
%%%mzn-stat: allDifferentNumber1MaxHallSetSize=2
%%%mzn-stat: allDifferentNumber1PropagationsTotal=1501
%%%mzn-stat: allDifferentNumber1PropagationsThatFoundConflict=98
%%%mzn-stat: circuitNumber2PropagationsThatFoundConflict=0
%%%mzn-stat: circuitNumber2TotalFixedEdgesAtConflict=0
%%%mzn-stat: circuitNumber2NumberOfConflicts=0
%%%mzn-stat: circuitNumber2PropagationsThatPruned=23
%%%mzn-stat: circuitNumber2PropagationsTotal=748
%%%mzn-stat: AverageConflictSize=2
%%%mzn-stat: NumUnitNogoodsLearned=0
%%%mzn-stat: AverageLearnedNogoodLength=2
%%%mzn-stat: AverageBacktrackAmount=0
%%%mzn-stat: AverageLbd=2
%%%mzn-stat: 2AutonomousSearchNumBackupCalled=451
%%%mzn-stat: 2AutonomousSearchNumPredicatesRemoved=0
%%%mzn-stat: 2AutonomousSearchNumCalls=453
%%%mzn-stat: 2AutonomousSearchNumPredicatesAdded=128
%%%mzn-stat: 2AutonomousSearchAverageSizeOfHeap=0.5298013245033113
%%%mzn-stat: 2AutonomousSearchNumAssignedPredicatesEncountered=240
%%%mzn-stat-end
maxleg = 627;
succ = array1d(1..20,[2, 3, 4, 5, 7, 8, 6, 9, 10, 14, 1, 11, 12, 15, 19, 17, 18, 20, 16, 13]);
% time elapsed: 5.19 s
----------
%%%mzn-stat: initTime=0.096317042
%%%mzn-stat: objective=614
%%%mzn-stat: nodes=1546
%%%mzn-stat: restarts=0
%%%mzn-stat: peakDepth=251
%%%mzn-stat: solveTime=0.01048445
%%%mzn-stat: variables=504
%%%mzn-stat: propagators=355
%%%mzn-stat: failures=110
%%%mzn-stat: propagations=8056
%%%mzn-stat: nogoods=110
%%%mzn-stat: numAtomicConstraintsPropagated=0
%%%mzn-stat: allDifferentNumber1TotalHallSetSize=228
%%%mzn-stat: allDifferentNumber1NumberOfConflicts=110
%%%mzn-stat: allDifferentNumber1MaxHallSetSize=8
%%%mzn-stat: allDifferentNumber1PropagationsTotal=1604
%%%mzn-stat: allDifferentNumber1PropagationsThatFoundConflict=110
%%%mzn-stat: circuitNumber2PropagationsThatFoundConflict=0
%%%mzn-stat: circuitNumber2TotalFixedEdgesAtConflict=0
%%%mzn-stat: circuitNumber2NumberOfConflicts=0
%%%mzn-stat: circuitNumber2PropagationsThatPruned=27
%%%mzn-stat: circuitNumber2PropagationsTotal=801
%%%mzn-stat: AverageConflictSize=2.081818181818182
%%%mzn-stat: NumUnitNogoodsLearned=0
%%%mzn-stat: AverageLearnedNogoodLength=2.209090909090909
%%%mzn-stat: AverageBacktrackAmount=0
%%%mzn-stat: AverageLbd=2.190909090909091
%%%mzn-stat: 2AutonomousSearchNumBackupCalled=666
%%%mzn-stat: 2AutonomousSearchNumPredicatesRemoved=0
%%%mzn-stat: 2AutonomousSearchNumCalls=669
%%%mzn-stat: 2AutonomousSearchNumPredicatesAdded=191
%%%mzn-stat: 2AutonomousSearchAverageSizeOfHeap=0.6203288490284006
%%%mzn-stat: 2AutonomousSearchNumAssignedPredicatesEncountered=415
%%%mzn-stat-end
maxleg = 614;
succ = array1d(1..20,[2, 3, 4, 5, 7, 8, 6, 9, 10, 14, 1, 11, 12, 16, 13, 17, 18, 20, 15, 19]);
% time elapsed: 5.19 s
----------
%%%mzn-stat: initTime=0.096317042
%%%mzn-stat: objective=546
%%%mzn-stat: nodes=1759
%%%mzn-stat: restarts=0
%%%mzn-stat: peakDepth=251
%%%mzn-stat: solveTime=0.010874816
%%%mzn-stat: variables=504
%%%mzn-stat: propagators=355
%%%mzn-stat: failures=111
%%%mzn-stat: propagations=8687
%%%mzn-stat: nogoods=111
%%%mzn-stat: numAtomicConstraintsPropagated=0
%%%mzn-stat: allDifferentNumber1TotalHallSetSize=230
%%%mzn-stat: allDifferentNumber1NumberOfConflicts=111
%%%mzn-stat: allDifferentNumber1MaxHallSetSize=8
%%%mzn-stat: allDifferentNumber1PropagationsTotal=1640
%%%mzn-stat: allDifferentNumber1PropagationsThatFoundConflict=111
%%%mzn-stat: circuitNumber2PropagationsThatFoundConflict=0
%%%mzn-stat: circuitNumber2TotalFixedEdgesAtConflict=0
%%%mzn-stat: circuitNumber2NumberOfConflicts=0
%%%mzn-stat: circuitNumber2PropagationsThatPruned=29
%%%mzn-stat: circuitNumber2PropagationsTotal=823
%%%mzn-stat: AverageConflictSize=2.081081081081081
%%%mzn-stat: NumUnitNogoodsLearned=0
%%%mzn-stat: AverageLearnedNogoodLength=2.2072072072072073
%%%mzn-stat: AverageBacktrackAmount=0
%%%mzn-stat: AverageLbd=2.189189189189189
%%%mzn-stat: 2AutonomousSearchNumBackupCalled=857
%%%mzn-stat: 2AutonomousSearchNumPredicatesRemoved=0
%%%mzn-stat: 2AutonomousSearchNumCalls=861
%%%mzn-stat: 2AutonomousSearchNumPredicatesAdded=193
%%%mzn-stat: 2AutonomousSearchAverageSizeOfHeap=0.6852497096399536
%%%mzn-stat: 2AutonomousSearchNumAssignedPredicatesEncountered=590
%%%mzn-stat-end
maxleg = 546;
succ = array1d(1..20,[2, 3, 4, 5, 7, 8, 6, 9, 10, 14, 1, 11, 12, 16, 13, 18, 20, 17, 15, 19]);
% time elapsed: 5.19 s
----------
%%%mzn-stat: initTime=0.096317042
%%%mzn-stat: objective=525
%%%mzn-stat: nodes=2045
%%%mzn-stat: restarts=0
%%%mzn-stat: peakDepth=251
%%%mzn-stat: solveTime=0.01203739
%%%mzn-stat: variables=504
%%%mzn-stat: propagators=355
%%%mzn-stat: failures=128
%%%mzn-stat: propagations=10100
%%%mzn-stat: nogoods=128
%%%mzn-stat: numAtomicConstraintsPropagated=0
%%%mzn-stat: allDifferentNumber1TotalHallSetSize=266
%%%mzn-stat: allDifferentNumber1NumberOfConflicts=128
%%%mzn-stat: allDifferentNumber1MaxHallSetSize=8
%%%mzn-stat: allDifferentNumber1PropagationsTotal=1805
%%%mzn-stat: allDifferentNumber1PropagationsThatFoundConflict=128
%%%mzn-stat: circuitNumber2PropagationsThatFoundConflict=0
%%%mzn-stat: circuitNumber2TotalFixedEdgesAtConflict=0
%%%mzn-stat: circuitNumber2NumberOfConflicts=0
%%%mzn-stat: circuitNumber2PropagationsThatPruned=30
%%%mzn-stat: circuitNumber2PropagationsTotal=917
%%%mzn-stat: AverageConflictSize=2.125
%%%mzn-stat: NumUnitNogoodsLearned=0
%%%mzn-stat: AverageLearnedNogoodLength=2.234375
%%%mzn-stat: AverageBacktrackAmount=0
%%%mzn-stat: AverageLbd=2.203125
%%%mzn-stat: 2AutonomousSearchNumBackupCalled=1033
%%%mzn-stat: 2AutonomousSearchNumPredicatesRemoved=0
%%%mzn-stat: 2AutonomousSearchNumCalls=1038
%%%mzn-stat: 2AutonomousSearchNumPredicatesAdded=222
%%%mzn-stat: 2AutonomousSearchAverageSizeOfHeap=0.7456647398843931
%%%mzn-stat: 2AutonomousSearchNumAssignedPredicatesEncountered=774
%%%mzn-stat-end
maxleg = 525;
succ = array1d(1..20,[2, 3, 4, 5, 7, 8, 10, 9, 16, 6, 1, 11, 12, 13, 14, 18, 20, 17, 15, 19]);
% time elapsed: 5.19 s
----------
%%%mzn-stat: initTime=0.096317042
%%%mzn-stat: objective=498
%%%mzn-stat: nodes=2481
%%%mzn-stat: restarts=0
%%%mzn-stat: peakDepth=251
%%%mzn-stat: solveTime=0.01468927
%%%mzn-stat: variables=504
%%%mzn-stat: propagators=355
%%%mzn-stat: failures=166
%%%mzn-stat: propagations=13119
%%%mzn-stat: nogoods=166
%%%mzn-stat: numAtomicConstraintsPropagated=0
%%%mzn-stat: allDifferentNumber1TotalHallSetSize=353
%%%mzn-stat: allDifferentNumber1NumberOfConflicts=166
%%%mzn-stat: allDifferentNumber1MaxHallSetSize=13
%%%mzn-stat: allDifferentNumber1PropagationsTotal=2189
%%%mzn-stat: allDifferentNumber1PropagationsThatFoundConflict=166
%%%mzn-stat: circuitNumber2PropagationsThatFoundConflict=0
%%%mzn-stat: circuitNumber2TotalFixedEdgesAtConflict=0
%%%mzn-stat: circuitNumber2NumberOfConflicts=0
%%%mzn-stat: circuitNumber2PropagationsThatPruned=41
%%%mzn-stat: circuitNumber2PropagationsTotal=1162
%%%mzn-stat: AverageConflictSize=2.210843373493976
%%%mzn-stat: NumUnitNogoodsLearned=0
%%%mzn-stat: AverageLearnedNogoodLength=2.2951807228915664
%%%mzn-stat: AverageBacktrackAmount=0
%%%mzn-stat: AverageLbd=2.246987951807229
%%%mzn-stat: 2AutonomousSearchNumBackupCalled=1196
%%%mzn-stat: 2AutonomousSearchNumPredicatesRemoved=0
%%%mzn-stat: 2AutonomousSearchNumCalls=1202
%%%mzn-stat: 2AutonomousSearchNumPredicatesAdded=288
%%%mzn-stat: 2AutonomousSearchAverageSizeOfHeap=0.8103161397670549
%%%mzn-stat: 2AutonomousSearchNumAssignedPredicatesEncountered=974
%%%mzn-stat-end
maxleg = 498;
succ = array1d(1..20,[2, 3, 4, 5, 11, 8, 1, 7, 6, 9, 12, 13, 14, 15, 19, 10, 18, 16, 20, 17]);
% time elapsed: 5.19 s
----------
%%%mzn-stat: initTime=0.096317042
%%%mzn-stat: objective=489
%%%mzn-stat: nodes=2893
%%%mzn-stat: restarts=0
%%%mzn-stat: peakDepth=251
%%%mzn-stat: solveTime=0.018116522
%%%mzn-stat: variables=504
%%%mzn-stat: propagators=355
%%%mzn-stat: failures=189
%%%mzn-stat: propagations=16278
%%%mzn-stat: nogoods=189
%%%mzn-stat: numAtomicConstraintsPropagated=0
%%%mzn-stat: allDifferentNumber1TotalHallSetSize=399
%%%mzn-stat: allDifferentNumber1NumberOfConflicts=189
%%%mzn-stat: allDifferentNumber1MaxHallSetSize=13
%%%mzn-stat: allDifferentNumber1PropagationsTotal=2594
%%%mzn-stat: allDifferentNumber1PropagationsThatFoundConflict=189
%%%mzn-stat: circuitNumber2PropagationsThatFoundConflict=0
%%%mzn-stat: circuitNumber2TotalFixedEdgesAtConflict=0
%%%mzn-stat: circuitNumber2NumberOfConflicts=0
%%%mzn-stat: circuitNumber2PropagationsThatPruned=47
%%%mzn-stat: circuitNumber2PropagationsTotal=1409
%%%mzn-stat: AverageConflictSize=2.185185185185185
%%%mzn-stat: NumUnitNogoodsLearned=0
%%%mzn-stat: AverageLearnedNogoodLength=2.259259259259259
%%%mzn-stat: AverageBacktrackAmount=0
%%%mzn-stat: AverageLbd=2.2169312169312168
%%%mzn-stat: 2AutonomousSearchNumBackupCalled=1343
%%%mzn-stat: 2AutonomousSearchNumPredicatesRemoved=0
%%%mzn-stat: 2AutonomousSearchNumCalls=1350
%%%mzn-stat: 2AutonomousSearchNumPredicatesAdded=318
%%%mzn-stat: 2AutonomousSearchAverageSizeOfHeap=0.8711111111111111
%%%mzn-stat: 2AutonomousSearchNumAssignedPredicatesEncountered=1176
%%%mzn-stat-end
maxleg = 489;
succ = array1d(1..20,[3, 4, 2, 5, 11, 8, 1, 7, 6, 9, 12, 13, 14, 15, 19, 10, 18, 16, 20, 17]);
% time elapsed: 5.20 s
----------
%%%mzn-stat: initTime=0.096317042
%%%mzn-stat: objective=437
%%%mzn-stat: nodes=3074
%%%mzn-stat: restarts=0
%%%mzn-stat: peakDepth=251
%%%mzn-stat: solveTime=0.018766173
%%%mzn-stat: variables=504
%%%mzn-stat: propagators=355
%%%mzn-stat: failures=196
%%%mzn-stat: propagations=17327
%%%mzn-stat: nogoods=196
%%%mzn-stat: numAtomicConstraintsPropagated=0
%%%mzn-stat: allDifferentNumber1TotalHallSetSize=413
%%%mzn-stat: allDifferentNumber1NumberOfConflicts=196
%%%mzn-stat: allDifferentNumber1MaxHallSetSize=13
%%%mzn-stat: allDifferentNumber1PropagationsTotal=2681
%%%mzn-stat: allDifferentNumber1PropagationsThatFoundConflict=196
%%%mzn-stat: circuitNumber2PropagationsThatFoundConflict=0
%%%mzn-stat: circuitNumber2TotalFixedEdgesAtConflict=0
%%%mzn-stat: circuitNumber2NumberOfConflicts=0
%%%mzn-stat: circuitNumber2PropagationsThatPruned=53
%%%mzn-stat: circuitNumber2PropagationsTotal=1459
%%%mzn-stat: AverageConflictSize=2.1785714285714284
%%%mzn-stat: NumUnitNogoodsLearned=0
%%%mzn-stat: AverageLearnedNogoodLength=2.25
%%%mzn-stat: AverageBacktrackAmount=0
%%%mzn-stat: AverageLbd=2.2091836734693877
%%%mzn-stat: 2AutonomousSearchNumBackupCalled=1472
%%%mzn-stat: 2AutonomousSearchNumPredicatesRemoved=0
%%%mzn-stat: 2AutonomousSearchNumCalls=1480
%%%mzn-stat: 2AutonomousSearchNumPredicatesAdded=328
%%%mzn-stat: 2AutonomousSearchAverageSizeOfHeap=0.9324324324324325
%%%mzn-stat: 2AutonomousSearchNumAssignedPredicatesEncountered=1380
%%%mzn-stat-end
maxleg = 437;
succ = array1d(1..20,[3, 4, 2, 5, 11, 8, 1, 7, 6, 9, 14, 13, 15, 12, 19, 10, 18, 16, 20, 17]);
% time elapsed: 5.20 s
----------
%%%mzn-stat: initTime=0.096317042
%%%mzn-stat: objective=404
%%%mzn-stat: nodes=3221
%%%mzn-stat: restarts=0
%%%mzn-stat: peakDepth=251
%%%mzn-stat: solveTime=0.019390178
%%%mzn-stat: variables=504
%%%mzn-stat: propagators=355
%%%mzn-stat: failures=204
%%%mzn-stat: propagations=18283
%%%mzn-stat: nogoods=204
%%%mzn-stat: numAtomicConstraintsPropagated=0
%%%mzn-stat: allDifferentNumber1TotalHallSetSize=435
%%%mzn-stat: allDifferentNumber1NumberOfConflicts=203
%%%mzn-stat: allDifferentNumber1MaxHallSetSize=13
%%%mzn-stat: allDifferentNumber1PropagationsTotal=2734
%%%mzn-stat: allDifferentNumber1PropagationsThatFoundConflict=203
%%%mzn-stat: circuitNumber2PropagationsThatFoundConflict=0
%%%mzn-stat: circuitNumber2TotalFixedEdgesAtConflict=0
%%%mzn-stat: circuitNumber2NumberOfConflicts=0
%%%mzn-stat: circuitNumber2PropagationsThatPruned=59
%%%mzn-stat: circuitNumber2PropagationsTotal=1488
%%%mzn-stat: AverageConflictSize=2.2794117647058822
%%%mzn-stat: NumUnitNogoodsLearned=0
%%%mzn-stat: AverageLearnedNogoodLength=2.5
%%%mzn-stat: AverageBacktrackAmount=0
%%%mzn-stat: AverageLbd=2.2941176470588234
%%%mzn-stat: 2AutonomousSearchNumBackupCalled=1591
%%%mzn-stat: 2AutonomousSearchNumPredicatesRemoved=0
%%%mzn-stat: 2AutonomousSearchNumCalls=1600
%%%mzn-stat: 2AutonomousSearchNumPredicatesAdded=430
%%%mzn-stat: 2AutonomousSearchAverageSizeOfHeap=1.0275
%%%mzn-stat: 2AutonomousSearchNumAssignedPredicatesEncountered=1644
%%%mzn-stat-end
maxleg = 404;
succ = array1d(1..20,[3, 4, 2, 5, 11, 8, 1, 7, 6, 16, 14, 13, 15, 12, 19, 18, 10, 9, 20, 17]);
% time elapsed: 5.20 s
----------
%%%mzn-stat: initTime=0.096317042
%%%mzn-stat: objective=392
%%%mzn-stat: nodes=3344
%%%mzn-stat: restarts=0
%%%mzn-stat: peakDepth=251
%%%mzn-stat: solveTime=0.019788348
%%%mzn-stat: variables=504
%%%mzn-stat: propagators=355
%%%mzn-stat: failures=207
%%%mzn-stat: propagations=19070
%%%mzn-stat: nogoods=207
%%%mzn-stat: numAtomicConstraintsPropagated=0
%%%mzn-stat: allDifferentNumber1TotalHallSetSize=443
%%%mzn-stat: allDifferentNumber1NumberOfConflicts=206
%%%mzn-stat: allDifferentNumber1MaxHallSetSize=13
%%%mzn-stat: allDifferentNumber1PropagationsTotal=2773
%%%mzn-stat: allDifferentNumber1PropagationsThatFoundConflict=206
%%%mzn-stat: circuitNumber2PropagationsThatFoundConflict=0
%%%mzn-stat: circuitNumber2TotalFixedEdgesAtConflict=0
%%%mzn-stat: circuitNumber2NumberOfConflicts=0
%%%mzn-stat: circuitNumber2PropagationsThatPruned=61
%%%mzn-stat: circuitNumber2PropagationsTotal=1510
%%%mzn-stat: AverageConflictSize=2.2946859903381642
%%%mzn-stat: NumUnitNogoodsLearned=0
%%%mzn-stat: AverageLearnedNogoodLength=2.5120772946859904
%%%mzn-stat: AverageBacktrackAmount=0
%%%mzn-stat: AverageLbd=2.2995169082125604
%%%mzn-stat: 2AutonomousSearchNumBackupCalled=1691
%%%mzn-stat: 2AutonomousSearchNumPredicatesRemoved=0
%%%mzn-stat: 2AutonomousSearchNumCalls=1701
%%%mzn-stat: 2AutonomousSearchNumPredicatesAdded=440
%%%mzn-stat: 2AutonomousSearchAverageSizeOfHeap=1.1228689006466783
%%%mzn-stat: 2AutonomousSearchNumAssignedPredicatesEncountered=1910
%%%mzn-stat-end
maxleg = 392;
succ = array1d(1..20,[3, 4, 2, 5, 11, 8, 1, 7, 6, 16, 14, 13, 19, 12, 20, 18, 10, 9, 15, 17]);
% time elapsed: 5.20 s
----------
%%%mzn-stat: initTime=0.096317042
%%%mzn-stat: objective=378
%%%mzn-stat: nodes=3490
%%%mzn-stat: restarts=0
%%%mzn-stat: peakDepth=251
%%%mzn-stat: solveTime=0.020416774
%%%mzn-stat: variables=504
%%%mzn-stat: propagators=355
%%%mzn-stat: failures=215
%%%mzn-stat: propagations=20285
%%%mzn-stat: nogoods=215
%%%mzn-stat: numAtomicConstraintsPropagated=0
%%%mzn-stat: allDifferentNumber1TotalHallSetSize=468
%%%mzn-stat: allDifferentNumber1NumberOfConflicts=214
%%%mzn-stat: allDifferentNumber1MaxHallSetSize=13
%%%mzn-stat: allDifferentNumber1PropagationsTotal=2854
%%%mzn-stat: allDifferentNumber1PropagationsThatFoundConflict=214
%%%mzn-stat: circuitNumber2PropagationsThatFoundConflict=0
%%%mzn-stat: circuitNumber2TotalFixedEdgesAtConflict=0
%%%mzn-stat: circuitNumber2NumberOfConflicts=0
%%%mzn-stat: circuitNumber2PropagationsThatPruned=67
%%%mzn-stat: circuitNumber2PropagationsTotal=1557
%%%mzn-stat: AverageConflictSize=2.3767441860465115
%%%mzn-stat: NumUnitNogoodsLearned=0
%%%mzn-stat: AverageLearnedNogoodLength=2.6325581395348836
%%%mzn-stat: AverageBacktrackAmount=0
%%%mzn-stat: AverageLbd=2.353488372093023
%%%mzn-stat: 2AutonomousSearchNumBackupCalled=1789
%%%mzn-stat: 2AutonomousSearchNumPredicatesRemoved=0
%%%mzn-stat: 2AutonomousSearchNumCalls=1800
%%%mzn-stat: 2AutonomousSearchNumPredicatesAdded=476
%%%mzn-stat: 2AutonomousSearchAverageSizeOfHeap=1.2172222222222222
%%%mzn-stat: 2AutonomousSearchNumAssignedPredicatesEncountered=2191
%%%mzn-stat-end
maxleg = 378;
succ = array1d(1..20,[3, 4, 2, 5, 11, 9, 1, 7, 8, 16, 14, 13, 19, 12, 20, 18, 10, 6, 15, 17]);
% time elapsed: 5.20 s
----------
%%%mzn-stat: initTime=0.096317042
%%%mzn-stat: objective=362
%%%mzn-stat: nodes=3647
%%%mzn-stat: restarts=0
%%%mzn-stat: peakDepth=251
%%%mzn-stat: solveTime=0.021230442
%%%mzn-stat: variables=504
%%%mzn-stat: propagators=355
%%%mzn-stat: failures=222
%%%mzn-stat: propagations=21813
%%%mzn-stat: nogoods=222
%%%mzn-stat: numAtomicConstraintsPropagated=0
%%%mzn-stat: allDifferentNumber1TotalHallSetSize=490
%%%mzn-stat: allDifferentNumber1NumberOfConflicts=221
%%%mzn-stat: allDifferentNumber1MaxHallSetSize=13
%%%mzn-stat: allDifferentNumber1PropagationsTotal=2964
%%%mzn-stat: allDifferentNumber1PropagationsThatFoundConflict=221
%%%mzn-stat: circuitNumber2PropagationsThatFoundConflict=0
%%%mzn-stat: circuitNumber2TotalFixedEdgesAtConflict=0
%%%mzn-stat: circuitNumber2NumberOfConflicts=0
%%%mzn-stat: circuitNumber2PropagationsThatPruned=78
%%%mzn-stat: circuitNumber2PropagationsTotal=1627
%%%mzn-stat: AverageConflictSize=2.4774774774774775
%%%mzn-stat: NumUnitNogoodsLearned=0
%%%mzn-stat: AverageLearnedNogoodLength=2.720720720720721
%%%mzn-stat: AverageBacktrackAmount=0
%%%mzn-stat: AverageLbd=2.3603603603603602
%%%mzn-stat: 2AutonomousSearchNumBackupCalled=1880
%%%mzn-stat: 2AutonomousSearchNumPredicatesRemoved=0
%%%mzn-stat: 2AutonomousSearchNumCalls=1892
%%%mzn-stat: 2AutonomousSearchNumPredicatesAdded=513
%%%mzn-stat: 2AutonomousSearchAverageSizeOfHeap=1.313953488372093
%%%mzn-stat: 2AutonomousSearchNumAssignedPredicatesEncountered=2486
%%%mzn-stat-end
maxleg = 362;
succ = array1d(1..20,[3, 5, 2, 1, 11, 9, 4, 7, 8, 16, 14, 13, 19, 12, 20, 18, 10, 6, 15, 17]);
% time elapsed: 5.20 s
----------
%%%mzn-stat: initTime=0.096317042
%%%mzn-stat: objective=356
%%%mzn-stat: nodes=3759
%%%mzn-stat: restarts=0
%%%mzn-stat: peakDepth=251
%%%mzn-stat: solveTime=0.021643578
%%%mzn-stat: variables=504
%%%mzn-stat: propagators=355
%%%mzn-stat: failures=225
%%%mzn-stat: propagations=22712
%%%mzn-stat: nogoods=225
%%%mzn-stat: numAtomicConstraintsPropagated=0
%%%mzn-stat: allDifferentNumber1TotalHallSetSize=497
%%%mzn-stat: allDifferentNumber1NumberOfConflicts=224
%%%mzn-stat: allDifferentNumber1MaxHallSetSize=13
%%%mzn-stat: allDifferentNumber1PropagationsTotal=3003
%%%mzn-stat: allDifferentNumber1PropagationsThatFoundConflict=224
%%%mzn-stat: circuitNumber2PropagationsThatFoundConflict=0
%%%mzn-stat: circuitNumber2TotalFixedEdgesAtConflict=0
%%%mzn-stat: circuitNumber2NumberOfConflicts=0
%%%mzn-stat: circuitNumber2PropagationsThatPruned=81
%%%mzn-stat: circuitNumber2PropagationsTotal=1652
%%%mzn-stat: AverageConflictSize=2.4755555555555557
%%%mzn-stat: NumUnitNogoodsLearned=0
%%%mzn-stat: AverageLearnedNogoodLength=2.7644444444444445
%%%mzn-stat: AverageBacktrackAmount=0
%%%mzn-stat: AverageLbd=2.368888888888889
%%%mzn-stat: 2AutonomousSearchNumBackupCalled=1967
%%%mzn-stat: 2AutonomousSearchNumPredicatesRemoved=0
%%%mzn-stat: 2AutonomousSearchNumCalls=1980
%%%mzn-stat: 2AutonomousSearchNumPredicatesAdded=561
%%%mzn-stat: 2AutonomousSearchAverageSizeOfHeap=1.4181818181818182
%%%mzn-stat: 2AutonomousSearchNumAssignedPredicatesEncountered=2808
%%%mzn-stat-end
maxleg = 356;
succ = array1d(1..20,[3, 5, 2, 1, 11, 9, 4, 7, 8, 16, 14, 15, 12, 19, 20, 18, 10, 6, 13, 17]);
% time elapsed: 5.20 s
----------
==========
% time elapsed: 5.47 s
%%%mzn-stat: initTime=0.096317042
%%%mzn-stat: objective=356
%%%mzn-stat: nodes=7769
%%%mzn-stat: restarts=0
%%%mzn-stat: peakDepth=251
%%%mzn-stat: solveTime=0.29625903
%%%mzn-stat: variables=504
%%%mzn-stat: propagators=355
%%%mzn-stat: failures=2961
%%%mzn-stat: propagations=177424
%%%mzn-stat: nogoods=2961
%%%mzn-stat: numAtomicConstraintsPropagated=0
%%%mzn-stat: allDifferentNumber1TotalHallSetSize=10933
%%%mzn-stat: allDifferentNumber1NumberOfConflicts=1989
%%%mzn-stat: allDifferentNumber1MaxHallSetSize=17
%%%mzn-stat: allDifferentNumber1PropagationsTotal=13076
%%%mzn-stat: allDifferentNumber1PropagationsThatFoundConflict=1989
%%%mzn-stat: circuitNumber2PropagationsThatFoundConflict=546
%%%mzn-stat: circuitNumber2TotalFixedEdgesAtConflict=7524
%%%mzn-stat: circuitNumber2NumberOfConflicts=546
%%%mzn-stat: circuitNumber2PropagationsThatPruned=1318
%%%mzn-stat: circuitNumber2PropagationsTotal=7200
%%%mzn-stat: AverageConflictSize=17.997635933806148
%%%mzn-stat: NumUnitNogoodsLearned=1
%%%mzn-stat: AverageLearnedNogoodLength=44.34549138804458
%%%mzn-stat: AverageBacktrackAmount=0
%%%mzn-stat: AverageLbd=5.593042890915231
%%%mzn-stat: 2AutonomousSearchNumBackupCalled=1967
%%%mzn-stat: 2AutonomousSearchNumPredicatesRemoved=0
%%%mzn-stat: 2AutonomousSearchNumCalls=1980
%%%mzn-stat: 2AutonomousSearchNumPredicatesAdded=1680
%%%mzn-stat: 2AutonomousSearchAverageSizeOfHeap=1.4181818181818182
%%%mzn-stat: 2AutonomousSearchNumAssignedPredicatesEncountered=2808
%%%mzn-stat-end
